(set-info :smt-lib-version 2.0)
(set-logic QF_LIRA)
(push 1)
(declare-fun N_PID () Int)
(declare-range PID (0 N_PID))
(declare-fun |s0.round| () Real)
(declare-fun |s0.cx| () (Array PID Bool))
(declare-fun |s0.source| () PID)
(declare-fun |s0.val| () Bool)
(declare-fun |s0.good_p| () (Array PID Bool))
(assert (= |s0.cx| (store |s0.cx| |s0.source| |s0.val|)))
(push 1)
(assert (not (or (not (select |s0.good_p| |s0.source|)) (= (select |s0.cx| |s0.source|) |s0.val|))))
(check-sat)
(pop 1)
(pop 1)
